unsat
(forall ((A (_ BitVec 21))
         (B (_ BitVec 23))
         (C (_ BitVec 14))
         (D (_ BitVec 14))
         (E (_ BitVec 17))
         (F (_ BitVec 23))
         (G (_ BitVec 23))
         (H (_ BitVec 3))
         (I (_ BitVec 39))
         (J (_ BitVec 39))
         (K (_ BitVec 39))
         (L (_ BitVec 1))
         (M (_ BitVec 21))
         (N (_ BitVec 21))
         (O (_ BitVec 23))
         (P (_ BitVec 21))
         (Q (_ BitVec 21))
         (R (_ BitVec 14))
         (S (_ BitVec 1))
         (T (_ BitVec 21))
         (U (_ BitVec 39))
         (V (_ BitVec 14))
         (W (_ BitVec 21))
         (X (_ BitVec 8))
         (Y (_ BitVec 1))
         (Z (_ BitVec 39))
         (A1 (_ BitVec 18))
         (B1 (_ BitVec 54))
         (C1 (_ BitVec 23))
         (D1 (_ BitVec 21))
         (E1 (_ BitVec 1))
         (F1 (_ BitVec 1))
         (G1 (_ BitVec 39))
         (H1 (_ BitVec 1))
         (I1 (_ BitVec 21))
         (J1 (_ BitVec 1))
         (K1 (_ BitVec 14))
         (L1 (_ BitVec 21))
         (M1 (_ BitVec 21))
         (N1 (_ BitVec 23))
         (O1 (_ BitVec 23))
         (P1 (_ BitVec 21))
         (Q1 (_ BitVec 1))
         (R1 (_ BitVec 1))
         (S1 (_ BitVec 63))
         (T1 (_ BitVec 40))
         (U1 (_ BitVec 40))
         (V1 (_ BitVec 17))
         (W1 (_ BitVec 32))
         (X1 (_ BitVec 32))
         (Y1 (_ BitVec 21))
         (Z1 (_ BitVec 21))
         (A2 (_ BitVec 21))
         (B2 (_ BitVec 21))
         (C2 (_ BitVec 32))
         (D2 (_ BitVec 1))
         (E2 (_ BitVec 40))
         (F2 (_ BitVec 32))
         (G2 (_ BitVec 1)))
  (! (let ((a!1 (= ((_ extract 3 2)
                     (bvadd (concat #x00 O) ((_ extract 38 8) J)))
                   #b00))
           (a!2 (= ((_ extract 28 2)
                     (bvadd ((_ extract 38 10) U) (concat #b000000 C1)))
                   #b000000000000000000000000000))
           (a!3 (and (= ((_ extract 9 6) U) #x0)
                     (= ((_ extract 11 10) U) (bvmul #b11 ((_ extract 1 0) C1)))))
           (a!4 (and (= ((_ extract 11 6) I) #b000000)
                     (= ((_ extract 38 12) I)
                        (bvmul #b111111111111111111111111111 (concat #x0 B)))))
           (a!5 (= ((_ extract 3 2)
                     (bvadd (concat #b0000000000 F) ((_ extract 38 6) K)))
                   #b00))
           (a!6 (= ((_ extract 32 6)
                     (bvadd (concat #b0000000000 F) ((_ extract 38 6) K)))
                   #b000000000000000000000000000))
           (a!7 (or ((_ bit2bool 2) B1)
                    ((_ bit2bool 20) B1)
                    (not ((_ bit2bool 19) B1))
                    (not (= H #b001))
                    (not (= ((_ extract 38 36) B1) #b010))))
           (a!8 (= ((_ extract 5 4)
                     (bvadd (concat #b0000000000 F) ((_ extract 38 6) K)))
                   #b00))
           (a!9 (= ((_ extract 34 8)
                     (bvadd ((_ extract 38 4) Z) (concat #x000 G)))
                   #b000000000000000000000000000))
           (a!10 (= ((_ extract 7 6)
                      (bvadd ((_ extract 38 4) Z) (concat #x000 G)))
                    #b00))
           (a!11 (or ((_ bit2bool 19) B1)
                     ((_ bit2bool 18) B1)
                     ((_ bit2bool 1) B1)
                     (not (= H #b001))
                     (not (= ((_ extract 37 37) B1) #b1))))
           (a!12 (= ((_ extract 3 2)
                      (bvadd ((_ extract 38 4) Z) (concat #x000 G)))
                    #b00))
           (a!13 (= ((_ extract 5 4)
                      (bvadd ((_ extract 38 4) Z) (concat #x000 G)))
                    #b00))
           (a!14 (= ((_ extract 30 4)
                      (bvadd (concat #x00 O) ((_ extract 38 8) J)))
                    #b000000000000000000000000000))
           (a!15 (or (= H #b011)
                     ((_ bit2bool 18) B1)
                     (not ((_ bit2bool 1) B1))
                     (not (= ((_ extract 37 37) B1) #b1))
                     (not (= ((_ extract 19 19) B1) #b1))))
           (a!16 (= (concat ((_ extract 16 16) V1) V1)
                    (bvmul #b111111111111111111
                           (concat ((_ extract 16 16) E) E))))
           (a!17 ((_ extract 7 6)
                   (bvadd (concat #b000 ((_ extract 22 2) N1)) (concat #b0 O1))))
           (a!18 ((_ extract 9 8)
                   (bvadd (concat #b000 ((_ extract 22 2) N1)) (concat #b0 O1))))
           (a!19 ((_ extract 5 4)
                   (bvadd (concat #b000 ((_ extract 22 2) N1)) (concat #b0 O1))))
           (a!20 ((_ extract 23 10)
                   (bvadd (concat #b000 ((_ extract 22 2) N1)) (concat #b0 O1)))))
     (let ((a!21 (and (or ((_ bit2bool 36) B1)
                          ((_ bit2bool 18) B1)
                          (not (= H #b001))
                          (not ((_ bit2bool 0) B1)))
                      (= ((_ extract 38 6) G1)
                         #b000000000000000000000000000000000)
                      (not ((_ bit2bool 3) D))
                      (not ((_ bit2bool 2) D))
                      (not ((_ bit2bool 1) C))
                      (not ((_ bit2bool 0) C))
                      (not ((_ bit2bool 6) R))
                      (or (not (= H1 #b1)) (not (= H #b001)))
                      (not ((_ bit2bool 0) V))
                      (not ((_ bit2bool 1) V))
                      (or (= H #b011) (not (= S #b1)) (= H1 #b0))
                      (or (not (= Q1 #b1))
                          (not (= E1 #b1))
                          (= ((_ extract 1 1) H) #b1))
                      (= ((_ extract 7 6) J) #b00)
                      a!1
                      (= ((_ extract 9 8) J) (bvmul #b11 ((_ extract 1 0) O)))
                      (not ((_ bit2bool 4) K1))
                      (or (not ((_ bit2bool 0) D)) (= H1 #b1))
                      (or (not (= Q1 #b1)) a!2)
                      (or (not (= H1 #b1)) a!3)
                      (or (not (= S #b1)) (not (= E1 #b1)) ((_ bit2bool 1) H))
                      (or (= H #b011) (not (= E1 #b1)) (= H1 #b0))
                      (or (not (= Y #b1)) a!4)
                      (= ((_ extract 7 6) K) (bvmul #b11 ((_ extract 1 0) F)))
                      (or ((_ bit2bool 38) B1)
                          ((_ bit2bool 3) B1)
                          ((_ bit2bool 20) B1)
                          ((_ bit2bool 1) H)
                          ((_ bit2bool 2) H)
                          (not ((_ bit2bool 0) H))
                          (not ((_ bit2bool 21) B1))
                          (= ((_ extract 39 39) B1) #b1))
                      a!5
                      (not ((_ bit2bool 5) K1))
                      (not ((_ bit2bool 2) K1))
                      a!6
                      (not ((_ bit2bool 7) R))
                      a!7
                      (not ((_ bit2bool 1) K1))
                      a!8
                      (not ((_ bit2bool 0) K1))
                      (or ((_ bit2bool 37) B1)
                          ((_ bit2bool 18) B1)
                          ((_ bit2bool 1) B1)
                          ((_ bit2bool 1) H)
                          ((_ bit2bool 2) H)
                          (not ((_ bit2bool 0) H))
                          (not ((_ bit2bool 19) B1)))
                      (not ((_ bit2bool 3) K1))
                      (not ((_ bit2bool 5) R))
                      (not ((_ bit2bool 4) R))
                      (not ((_ bit2bool 1) R))
                      (not ((_ bit2bool 0) R))
                      (not ((_ bit2bool 2) R))
                      (not ((_ bit2bool 3) R))
                      (or (not (= S #b1))
                          (not (= Y #b1))
                          ((_ bit2bool 1) H)
                          (not ((_ bit2bool 0) H)))
                      a!9
                      (not ((_ bit2bool 8) V))
                      a!10
                      (not ((_ bit2bool 9) V))
                      a!11
                      (or ((_ bit2bool 0) B1)
                          ((_ bit2bool 18) B1)
                          (not ((_ bit2bool 36) B1))
                          (not (= H #b001)))
                      (or (not ((_ bit2bool 38) B1))
                          ((_ bit2bool 2) B1)
                          ((_ bit2bool 19) B1)
                          ((_ bit2bool 18) B1)
                          (not (= H #b001))
                          (= ((_ extract 20 20) B1) #b1))
                      a!12
                      a!13
                      (or (not (= S #b1)) a!14)
                      (or (not ((_ bit2bool 1) D)) (not (= S #b1)))
                      (or ((_ bit2bool 36) B1)
                          ((_ bit2bool 0) B1)
                          (not (= H #b001))
                          (not ((_ bit2bool 18) B1)))
                      (or ((_ bit2bool 37) B1)
                          ((_ bit2bool 0) B1)
                          ((_ bit2bool 19) B1)
                          ((_ bit2bool 1) B1)
                          (not (= H #b001))
                          (not ((_ bit2bool 18) B1)))
                      (or ((_ bit2bool 2) B1)
                          ((_ bit2bool 1) B1)
                          (not ((_ bit2bool 37) B1))
                          (not (= H #b001))
                          (= ((_ extract 39 39) B1) #b1)
                          (= ((_ extract 21 21) B1) #b1)
                          (= ((_ extract 3 3) B1) #b1))
                      a!15
                      (or ((_ bit2bool 37) B1)
                          ((_ bit2bool 19) B1)
                          ((_ bit2bool 18) B1)
                          (not (= H #b001))
                          (not ((_ bit2bool 1) B1)))
                      (or ((_ bit2bool 37) B1)
                          ((_ bit2bool 18) B1)
                          (not ((_ bit2bool 19) B1))
                          (not (= H #b001))
                          (not a!16))
                      (or (not ((_ bit2bool 38) B1))
                          ((_ bit2bool 36) B1)
                          ((_ bit2bool 2) B1)
                          ((_ bit2bool 20) B1)
                          (not (= H #b001))
                          (not ((_ bit2bool 1) B1)))
                      (or (= H1 #b1) a!3)
                      (or (not ((_ bit2bool 0) D)) (not (= H1 #b1)))
                      (or (= S #b1) a!14)
                      (or (not ((_ bit2bool 1) D)) (not (= S #b0)))
                      (or a!2 (not (= Q1 #b0)))
                      (or (not (= Y #b0)) a!4)
                      (not ((_ bit2bool 4) V))
                      (= a!17 #b00)
                      (not ((_ bit2bool 5) V))
                      (not ((_ bit2bool 2) V))
                      (= a!18 #b00)
                      (not ((_ bit2bool 6) V))
                      (= a!19 #b00)
                      (= ((_ extract 7 6) N1) #b00)
                      (not ((_ bit2bool 7) V))
                      (not ((_ bit2bool 3) V))
                      (= a!20 #b00000000000000))))
       (= (INV!slice!1 A
                       B
                       C
                       D
                       E
                       F
                       G
                       H
                       I
                       J
                       K
                       L
                       M
                       N
                       O
                       P
                       Q
                       R
                       S
                       T
                       U
                       V
                       W
                       X
                       Y
                       Z
                       A1
                       B1
                       C1
                       D1
                       E1
                       F1
                       G1
                       H1
                       I1
                       J1
                       K1
                       L1
                       M1
                       N1
                       O1
                       P1
                       Q1
                       R1
                       S1
                       T1
                       U1
                       V1
                       W1
                       X1
                       Y1
                       Z1
                       A2
                       B2
                       C2
                       D2
                       E2
                       F2
                       G2)
          a!21)))
     :weight 0))
